c File: flat50_3_0.col
c
c SOURCE: Joseph Culberson (joe@cs.ualberta.ca)
c DESCRIPTION: Quasi-random coloring problem
c              generated with flatness = 0
c                             probability = 0.139
c                             known coloring = 3
c                             random seed = 1784
c              Creation Date:  Tue Jun  9 12:17:48 1998
c Maximum degree = 8 Minimum degree = 1
c p edge 50 115
c cnf created by edge2cnf
p cnf 150 545
-1 -2 0
-1 -3 0
-2 -3 0
1 2 3 0
-4 -5 0
-4 -6 0
-5 -6 0
4 5 6 0
-7 -8 0
-7 -9 0
-8 -9 0
7 8 9 0
-10 -11 0
-10 -12 0
-11 -12 0
10 11 12 0
-13 -14 0
-13 -15 0
-14 -15 0
13 14 15 0
-16 -17 0
-16 -18 0
-17 -18 0
16 17 18 0
-19 -20 0
-19 -21 0
-20 -21 0
19 20 21 0
-22 -23 0
-22 -24 0
-23 -24 0
22 23 24 0
-25 -26 0
-25 -27 0
-26 -27 0
25 26 27 0
-28 -29 0
-28 -30 0
-29 -30 0
28 29 30 0
-31 -32 0
-31 -33 0
-32 -33 0
31 32 33 0
-34 -35 0
-34 -36 0
-35 -36 0
34 35 36 0
-37 -38 0
-37 -39 0
-38 -39 0
37 38 39 0
-40 -41 0
-40 -42 0
-41 -42 0
40 41 42 0
-43 -44 0
-43 -45 0
-44 -45 0
43 44 45 0
-46 -47 0
-46 -48 0
-47 -48 0
46 47 48 0
-49 -50 0
-49 -51 0
-50 -51 0
49 50 51 0
-52 -53 0
-52 -54 0
-53 -54 0
52 53 54 0
-55 -56 0
-55 -57 0
-56 -57 0
55 56 57 0
-58 -59 0
-58 -60 0
-59 -60 0
58 59 60 0
-61 -62 0
-61 -63 0
-62 -63 0
61 62 63 0
-64 -65 0
-64 -66 0
-65 -66 0
64 65 66 0
-67 -68 0
-67 -69 0
-68 -69 0
67 68 69 0
-70 -71 0
-70 -72 0
-71 -72 0
70 71 72 0
-73 -74 0
-73 -75 0
-74 -75 0
73 74 75 0
-76 -77 0
-76 -78 0
-77 -78 0
76 77 78 0
-79 -80 0
-79 -81 0
-80 -81 0
79 80 81 0
-82 -83 0
-82 -84 0
-83 -84 0
82 83 84 0
-85 -86 0
-85 -87 0
-86 -87 0
85 86 87 0
-88 -89 0
-88 -90 0
-89 -90 0
88 89 90 0
-91 -92 0
-91 -93 0
-92 -93 0
91 92 93 0
-94 -95 0
-94 -96 0
-95 -96 0
94 95 96 0
-97 -98 0
-97 -99 0
-98 -99 0
97 98 99 0
-100 -101 0
-100 -102 0
-101 -102 0
100 101 102 0
-103 -104 0
-103 -105 0
-104 -105 0
103 104 105 0
-106 -107 0
-106 -108 0
-107 -108 0
106 107 108 0
-109 -110 0
-109 -111 0
-110 -111 0
109 110 111 0
-112 -113 0
-112 -114 0
-113 -114 0
112 113 114 0
-115 -116 0
-115 -117 0
-116 -117 0
115 116 117 0
-118 -119 0
-118 -120 0
-119 -120 0
118 119 120 0
-121 -122 0
-121 -123 0
-122 -123 0
121 122 123 0
-124 -125 0
-124 -126 0
-125 -126 0
124 125 126 0
-127 -128 0
-127 -129 0
-128 -129 0
127 128 129 0
-130 -131 0
-130 -132 0
-131 -132 0
130 131 132 0
-133 -134 0
-133 -135 0
-134 -135 0
133 134 135 0
-136 -137 0
-136 -138 0
-137 -138 0
136 137 138 0
-139 -140 0
-139 -141 0
-140 -141 0
139 140 141 0
-142 -143 0
-142 -144 0
-143 -144 0
142 143 144 0
-145 -146 0
-145 -147 0
-146 -147 0
145 146 147 0
-148 -149 0
-148 -150 0
-149 -150 0
148 149 150 0
-67 -1 0
-68 -2 0
-69 -3 0
-73 -1 0
-74 -2 0
-75 -3 0
-82 -1 0
-83 -2 0
-84 -3 0
-97 -1 0
-98 -2 0
-99 -3 0
-112 -1 0
-113 -2 0
-114 -3 0
-121 -1 0
-122 -2 0
-123 -3 0
-82 -4 0
-83 -5 0
-84 -6 0
-109 -4 0
-110 -5 0
-111 -6 0
-115 -4 0
-116 -5 0
-117 -6 0
-142 -4 0
-143 -5 0
-144 -6 0
-58 -7 0
-59 -8 0
-60 -9 0
-118 -7 0
-119 -8 0
-120 -9 0
-121 -7 0
-122 -8 0
-123 -9 0
-136 -7 0
-137 -8 0
-138 -9 0
-52 -10 0
-53 -11 0
-54 -12 0
-109 -10 0
-110 -11 0
-111 -12 0
-127 -10 0
-128 -11 0
-129 -12 0
-133 -10 0
-134 -11 0
-135 -12 0
-142 -10 0
-143 -11 0
-144 -12 0
-61 -13 0
-62 -14 0
-63 -15 0
-70 -13 0
-71 -14 0
-72 -15 0
-73 -13 0
-74 -14 0
-75 -15 0
-88 -13 0
-89 -14 0
-90 -15 0
-148 -13 0
-149 -14 0
-150 -15 0
-73 -16 0
-74 -17 0
-75 -18 0
-82 -16 0
-83 -17 0
-84 -18 0
-94 -16 0
-95 -17 0
-96 -18 0
-148 -16 0
-149 -17 0
-150 -18 0
-52 -19 0
-53 -20 0
-54 -21 0
-58 -19 0
-59 -20 0
-60 -21 0
-85 -19 0
-86 -20 0
-87 -21 0
-130 -19 0
-131 -20 0
-132 -21 0
-142 -19 0
-143 -20 0
-144 -21 0
-145 -19 0
-146 -20 0
-147 -21 0
-52 -22 0
-53 -23 0
-54 -24 0
-58 -22 0
-59 -23 0
-60 -24 0
-73 -22 0
-74 -23 0
-75 -24 0
-91 -22 0
-92 -23 0
-93 -24 0
-103 -22 0
-104 -23 0
-105 -24 0
-124 -22 0
-125 -23 0
-126 -24 0
-130 -22 0
-131 -23 0
-132 -24 0
-133 -22 0
-134 -23 0
-135 -24 0
-79 -25 0
-80 -26 0
-81 -27 0
-127 -25 0
-128 -26 0
-129 -27 0
-130 -25 0
-131 -26 0
-132 -27 0
-52 -28 0
-53 -29 0
-54 -30 0
-85 -28 0
-86 -29 0
-87 -30 0
-85 -31 0
-86 -32 0
-87 -33 0
-97 -31 0
-98 -32 0
-99 -33 0
-109 -31 0
-110 -32 0
-111 -33 0
-100 -34 0
-101 -35 0
-102 -36 0
-136 -34 0
-137 -35 0
-138 -36 0
-55 -37 0
-56 -38 0
-57 -39 0
-91 -37 0
-92 -38 0
-93 -39 0
-94 -37 0
-95 -38 0
-96 -39 0
-100 -37 0
-101 -38 0
-102 -39 0
-136 -37 0
-137 -38 0
-138 -39 0
-139 -37 0
-140 -38 0
-141 -39 0
-70 -40 0
-71 -41 0
-72 -42 0
-115 -40 0
-116 -41 0
-117 -42 0
-127 -40 0
-128 -41 0
-129 -42 0
-139 -40 0
-140 -41 0
-141 -42 0
-67 -43 0
-68 -44 0
-69 -45 0
-76 -43 0
-77 -44 0
-78 -45 0
-97 -43 0
-98 -44 0
-99 -45 0
-106 -43 0
-107 -44 0
-108 -45 0
-109 -43 0
-110 -44 0
-111 -45 0
-148 -43 0
-149 -44 0
-150 -45 0
-85 -46 0
-86 -47 0
-87 -48 0
-88 -46 0
-89 -47 0
-90 -48 0
-127 -46 0
-128 -47 0
-129 -48 0
-58 -49 0
-59 -50 0
-60 -51 0
-61 -49 0
-62 -50 0
-63 -51 0
-97 -49 0
-98 -50 0
-99 -51 0
-106 -49 0
-107 -50 0
-108 -51 0
-130 -49 0
-131 -50 0
-132 -51 0
-142 -49 0
-143 -50 0
-144 -51 0
-148 -49 0
-149 -50 0
-150 -51 0
-118 -52 0
-119 -53 0
-120 -54 0
-106 -55 0
-107 -56 0
-108 -57 0
-109 -55 0
-110 -56 0
-111 -57 0
-124 -55 0
-125 -56 0
-126 -57 0
-139 -55 0
-140 -56 0
-141 -57 0
-103 -58 0
-104 -59 0
-105 -60 0
-139 -58 0
-140 -59 0
-141 -60 0
-106 -61 0
-107 -62 0
-108 -63 0
-112 -61 0
-113 -62 0
-114 -63 0
-124 -61 0
-125 -62 0
-126 -63 0
-106 -64 0
-107 -65 0
-108 -66 0
-115 -64 0
-116 -65 0
-117 -66 0
-142 -64 0
-143 -65 0
-144 -66 0
-148 -64 0
-149 -65 0
-150 -66 0
-115 -67 0
-116 -68 0
-117 -69 0
-118 -67 0
-119 -68 0
-120 -69 0
-136 -67 0
-137 -68 0
-138 -69 0
-145 -67 0
-146 -68 0
-147 -69 0
-109 -70 0
-110 -71 0
-111 -72 0
-118 -70 0
-119 -71 0
-120 -72 0
-136 -70 0
-137 -71 0
-138 -72 0
-142 -70 0
-143 -71 0
-144 -72 0
-121 -73 0
-122 -74 0
-123 -75 0
-142 -73 0
-143 -74 0
-144 -75 0
-145 -73 0
-146 -74 0
-147 -75 0
-115 -76 0
-116 -77 0
-117 -78 0
-145 -76 0
-146 -77 0
-147 -78 0
-124 -82 0
-125 -83 0
-126 -84 0
-133 -82 0
-134 -83 0
-135 -84 0
-121 -85 0
-122 -86 0
-123 -87 0
-118 -88 0
-119 -89 0
-120 -90 0
-112 -94 0
-113 -95 0
-114 -96 0
-130 -94 0
-131 -95 0
-132 -96 0
-133 -94 0
-134 -95 0
-135 -96 0
-115 -97 0
-116 -98 0
-117 -99 0
-139 -97 0
-140 -98 0
-141 -99 0
-121 -100 0
-122 -101 0
-123 -102 0
